data/MCDM/NO_CORR/GEN_FROM_60/14_ITEMS_1000_GEN/K5014W19.KNP.mps
NAME          BLANK   
ROWS
 N  OBJROW
 L  R0000000
COLUMNS
    C0000000  OBJROW     -959.         R0000000  811.        
    C0000001  OBJROW     -688.         R0000000  638.        
    C0000002  OBJROW     -344.         R0000000  244.        
    C0000003  OBJROW     -609.         R0000000  714.        
    C0000004  OBJROW     -538.         R0000000  426.        
    C0000005  OBJROW     -913.         R0000000  401.        
    C0000006  OBJROW     -65.          R0000000  893.        
    C0000007  OBJROW     -47.          R0000000  729.        
    C0000008  OBJROW     -918.         R0000000  575.        
    C0000009  OBJROW     -413.         R0000000  124.        
    C0000010  OBJROW     -310.         R0000000  679.        
    C0000011  OBJROW     -959.         R0000000  634.        
    C0000012  OBJROW     -737.         R0000000  21.         
    C0000013  OBJROW     -513.         R0000000  221.        
RHS
    RHS       R0000000  14458.      
BOUNDS
 BV BOUND     C0000000  1.          
 BV BOUND     C0000001  1.          
 BV BOUND     C0000002  1.          
 BV BOUND     C0000003  1.          
 BV BOUND     C0000004  1.          
 BV BOUND     C0000005  1.          
 BV BOUND     C0000006  1.          
 BV BOUND     C0000007  1.          
 BV BOUND     C0000008  1.          
 BV BOUND     C0000009  1.          
 BV BOUND     C0000010  1.          
 BV BOUND     C0000011  1.          
 BV BOUND     C0000012  1.          
 BV BOUND     C0000013  1.          
ENDATA
