data/MCDM/NO_CORR/GEN_FROM_60/14_ITEMS_1000_GEN/K5014W19.KNP.txt
N 14
M 15
LC 14
LC 15
LC 16
LC 17
LC 18
LC 19
LC 20
LC 21
LC 22
LC 23
LC 24
LC 25
LC 26
LC 27
LR 1
LR 2
LR 3
LR 4
LR 5
LR 6
LR 7
LR 8
LR 9
LR 10
LR 11
LR 12
LR 13
LR 14
LR 15
LO -959
LO -688
LO -344
LO -609
LO -538
LO -913
LO -65
LO -47
LO -918
LO -413
LO -310
LO -959
LO -737
LO -513
OS 1
IC 757
IC 951
IC 411
IC 261
IC 420
IC 686
IC 562
IC 528
IC 366
IC 891
IC 976
IC 227
IC 981
IC 837
IB 4427
